100
30
17
17
17
22
2
18
15
24
2
16
3
32
12
6
14
32
17
5
31
12
31
18
5
16
6
18
32
6
10
15
2
2
14
18
19
1
18
2
1
18
31
12
1
18
9
15
17
2
31
8
32
5
12
10
17
32
13
4
14
1
1
15
2
32
10
24
7
15
32
15
32
9
22
2
9
21
4
32
2
1
31
21
31
6
10
9
31
3
8
5
20
2
9
16
32
3
14
16
25
5